(set-logic QF_S)
(declare-fun _var_0xINPUT_162353_() String)
(declare-fun __woorpje_diseq_pref0_() String)
(declare-fun __woorpje_diseq_suf_l0_() String)
(declare-fun __woorpje_diseq_suf_r0_() String)
(assert (=(str.++ _var_0xINPUT_162353_  "")(str.++ __woorpje_diseq_pref0_  "m" __woorpje_diseq_suf_l0_  "")) )
(assert (=(str.++  "V7RZHmFd2J" "")(str.++ __woorpje_diseq_pref0_  "J" __woorpje_diseq_suf_r0_  "")) )
(check-sat)
